c ---- [ banner ] ------------------------------------------------------------
c
c Kissat SAT Solver
c 
c Copyright (c) 2021-2024 Armin Biere University of Freiburg
c Copyright (c) 2019-2021 Armin Biere Johannes Kepler University Linz
c 
c Version 4.0.1 43f02cf3e992cb44653b35e5cb26f93281552ae0
c gcc (Ubuntu 13.2.0-23ubuntu4) 13.2.0 -W -Wall -O3 -DNDEBUG
c Thu Sep 12 12:27:46 CEST 2024 Linux abryzen9 6.8.0-41-generic x86_64
c
c ---- [ parsing ] -----------------------------------------------------------
c
c opened and reading DIMACS file:
c
c   /data/artifact/AMulet2.0_artifact/exp4/cnf_dc2_64/64_64_U_SP_WT_RC_GenMul_dc2.cnf
c
c parsed 'p cnf 30654 133906' header
c closing input after reading 2679330 bytes (3 MB)
c finished parsing after 0.03 seconds
c
c ---- [ options ] -----------------------------------------------------------
c
c --stable=0                       (different from default '1')
c
c ---- [ solving ] -----------------------------------------------------------
c
c  seconds switched rate     size/glue tier1  binary           remaining
c         MB reductions conflicts size  tier2     irredundant
c          level restarts redundant glue  trail           variables
c
c *  0.03 10 0 0 0  0 0   0   0 0.0 0 0 0 0 0% 12418 121486 30651 100%
c (  0.06 13 0 0 0  0 0   0   0 0.0 0 0 0 0 0% 12418 121486 30651 100%
c .  0.07 13 0 0 0  0 0   0   0 0.0 0 0 0 0 0% 12414 121486 30651 100%
c c  0.17 18 0 0 0  0 0   0   0 0.0 0 0 0 0 0% 19332 107845 27189 89%
c d  0.17 18 0 0 0  0 0   0   0 0.0 0 0 0 0 0% 12408 107845 27189 89%
c =  0.22 18 0 0 0  0 0   0   0 0.0 0 0 0 0 0% 12866 107845 26895 88%
c d  0.22 18 0 0 0  0 0   0   0 0.0 0 0 0 0 0% 12278 107845 26895 88%
c f  0.31 19 0 0 0  0 0   0   0 0.0 0 0 0 0 0% 17223 100046 29657 97%
c e  0.51 27 0 0 0  0 0   0   0 0.0 0 0 0 0 0% 11105 108110 20624 67%
c )  0.51 27 0 0 0  0 0   0   0 0.0 0 0 0 0 0% 11105 108110 20624 67%
c {  0.53 27 0 0 0  0 0   0   0 0.0 0 0 2 6 0% 11105 108110 20624 67%
c -  0.76 27 150 0 1 261 31 1000 739 3.0 16 5 3 9 21% 11176 108103 20624 67%
c -  1.02 29 152 0 2 397 30 2000 1402 3.1 17 5 3 9 24% 11231 108084 20624 67%
c c  1.17 25 187 0 2 440 28 2503 1858 3.0 16 5 3 10 24% 11331 107763 20580 67%
c d  1.17 25 187 0 2 440 28 2503 1857 3.0 16 5 3 10 24% 11243 107763 20580 67%
c u  1.20 25 187 0 2 440 28 2503 1494 3.0 16 5 3 10 24% 11255 107763 20580 67%
c v  1.22 25 187 0 2 440 28 2503 1358 3.0 16 5 3 10 24% 11256 107763 20580 67%
c w  1.24 25 187 0 2 440 28 2503 1356 3.0 16 5 3 10 24% 11256 107763 20580 67%
c x  1.26 26 187 0 2 440 28 2503 1356 3.0 16 5 3 10 24% 11408 107482 20580 67%
c =  1.33 26 187 0 2 440 28 2503 1356 3.0 16 5 3 10 24% 11940 107482 20314 66%
c
c  seconds   switched   rate       size/glue tier1     binary           remaining
c         MB  reductions conflicts       size  tier2       irredundant
c           level restarts    redundant    glue    trail           variables
c
c d  1.34 26 187 0 2 440 28 2503 1343 3.0 16 5 3 10 24% 11402 107482 20314 66%
c f  1.37 26 187 0 2 440 28 2503 1343 3.0 16 5 3 10 24% 11944 106357 20876 68%
c u  1.45 26 187 0 2 440 28 2503 1306 3.0 16 5 3 10 24% 11949 106357 20876 68%
c v  1.47 26 187 0 2 440 28 2503 1218 3.0 16 5 3 10 24% 11949 106357 20876 68%
c w  1.49 26 187 0 2 440 28 2503 1216 3.0 16 5 3 10 24% 11949 106357 20876 68%
c x  1.51 26 187 0 2 440 28 2503 1216 3.0 16 5 3 10 24% 11956 105969 20876 68%
c =  1.58 26 187 0 2 440 28 2503 1216 3.0 16 5 3 10 24% 12332 105969 20688 67%
c d  1.59 26 187 0 2 440 28 2503 1216 3.0 16 5 3 10 24% 11954 105969 20688 67%
c f  1.62 26 187 0 2 440 28 2503 1216 3.0 16 5 3 10 24% 11995 105903 20711 68%
c -  1.79 26 276 0 3 510 33 3417 1746 3.2 17 5 3 9 23% 12046 105900 20711 68%
c -  2.19 26 343 0 4 698 36 5149 2865 3.6 19 5 3 9 23% 12130 105895 20711 68%
c -  2.75 26 339 0 5 974 38 7149 4079 3.9 21 5 3 9 24% 12243 105877 20711 68%
c d  2.91 26 348 0 5 1061 39 7708 4487 3.9 21 5 3 9 24% 12226 105871 20677 67%
c u  2.96 26 348 0 5 1061 39 7708 3598 3.9 21 5 3 9 24% 12248 105871 20677 67%
c v  3.00 26 348 0 5 1061 39 7708 3348 3.9 21 5 3 9 24% 12248 105871 20677 67%
c w  3.04 26 348 0 5 1061 39 7708 3348 3.9 21 5 3 9 24% 12248 105871 20677 67%
c x  3.07 26 348 0 5 1061 39 7708 3348 3.9 21 5 3 9 24% 12250 105182 20677 67%
c =  3.20 26 348 0 5 1061 39 7708 3348 3.9 21 5 3 9 24% 12688 105182 20458 67%
c d  3.21 26 348 0 5 1061 39 7708 3338 3.9 21 5 3 9 24% 12199 105182 20456 67%
c t  3.23 26 348 0 5 1061 39 7708 3338 3.9 21 5 3 9 24% 12188 105182 20456 67%
c
c  seconds   switched    rate       size/glue tier1    binary           remaining
c         MB  reductions  conflicts       size  tier2      irredundant
c           level  restarts    redundant    glue   trail           variables
c
c f  3.28 26 348 0 5 1061 39 7708 3338 3.9 21 5 3 9 24% 12443 104784 20585 67%
c c  3.35 26 348 0 5 1061 39 7708 3338 3.9 21 5 3 9 24% 12446 104770 20584 67%
c d  3.36 26 348 0 5 1061 39 7708 3338 3.9 21 5 3 9 24% 12444 104770 20584 67%
c u  3.39 26 348 0 5 1061 39 7708 3202 3.9 21 5 3 9 24% 12447 104770 20584 67%
c v  3.42 26 348 0 5 1061 39 7708 3141 3.9 21 5 3 9 24% 12447 104770 20584 67%
c w  3.46 28 348 0 5 1061 39 7708 3130 3.9 21 5 3 9 24% 12447 104770 20584 67%
c x  3.49 28 348 0 5 1061 39 7708 3130 3.9 21 5 3 9 24% 12449 104735 20584 67%
c =  3.62 28 348 0 5 1061 39 7708 3130 3.9 21 5 3 9 24% 13361 104735 20128 66%
c d  3.63 28 348 0 5 1061 39 7708 3076 3.9 21 5 3 9 24% 12343 104735 20128 66%
c t  3.65 28 348 0 5 1061 39 7708 3076 3.9 21 5 3 9 24% 12300 104735 20128 66%
c f  3.69 28 348 0 5 1061 39 7708 3076 3.9 21 5 3 9 24% 14353 101648 21156 69%
c -  4.36 28 323 0 6 1348 39 9385 3869 3.9 24 6 2 9 26% 14414 101646 21156 69%
c o  4.58 28 390 0 6 1419 37 10843 5160 3.9 23 6 2 9 25% 14480 101633 21156 69%
c -  5.11 28 390 0 7 1597 38 11838 5340 4.0 25 6 2 8 26% 14505 101632 21156 69%
c s  5.45 28 378 0 7 1746 39 12513 5922 4.1 26 6 2 8 26% 14533 95247 21156 69%
c e  5.57 28 378 0 7 1746 39 12513 5922 4.1 26 6 2 8 26% 13372 96190 20477 67%
c 2  5.57 28 378 0 7 1746 39 12513 5922 4.1 26 6 2 8 26% 13371 96190 20477 67%
c s  5.57 28 378 0 7 1746 39 12513 5922 4.1 26 6 2 8 26% 13377 95705 20477 67%
c e  5.59 28 378 0 7 1746 39 12513 5922 4.1 26 6 2 8 26% 13371 95711 20475 67%
c ^  5.59 28 378 0 7 1746 39 12513 5922 4.1 26 6 2 8 26% 13371 95711 20475 67%
c
c  seconds   switched    rate        size/glue tier1    binary          remaining
c         MB  reductions   conflicts       size  tier2      irredundant
c           level  restarts     redundant    glue   trail          variables
c
c -  6.09 28 387 0 8 1929 39 14483 6427 4.2 29 7 2 8 26% 13448 95691 20475 67%
c d  6.35 28 382 0 8 2030 38 15791 7411 4.2 28 7 2 8 26% 13173 95688 20288 66%
c u  6.38 28 382 0 8 2030 38 15791 6507 4.2 28 7 2 8 26% 13198 95688 20288 66%
c v  6.41 28 382 0 8 2030 38 15791 5688 4.2 28 7 2 8 26% 13199 95688 20288 66%
c w  6.49 28 382 0 8 2030 38 15791 5653 4.2 28 7 2 8 26% 13199 95688 20288 66%
c =  6.66 28 382 0 8 2030 38 15791 5653 4.2 28 7 2 8 26% 14169 95688 19803 65%
c d  6.67 28 382 0 8 2030 38 15791 5570 4.2 28 7 2 8 26% 12996 95688 19803 65%
c t  6.69 28 382 0 8 2030 38 15791 5570 4.2 28 7 2 8 26% 12903 95688 19803 65%
c f  6.74 28 382 0 8 2030 38 15791 5570 4.2 28 7 2 8 26% 13053 95384 19879 65%
c u  6.77 28 382 0 8 2030 38 15791 5378 4.2 28 7 2 8 26% 13054 95384 19879 65%
c v  6.78 28 382 0 8 2030 38 15791 5247 4.2 28 7 2 8 26% 13055 95384 19879 65%
c w  6.85 28 382 0 8 2030 38 15791 5233 4.2 28 7 2 8 26% 13055 95384 19879 65%
c x  6.89 28 382 0 8 2030 38 15791 5231 4.2 28 7 2 8 26% 13150 94171 19879 65%
c =  7.06 28 382 0 8 2030 38 15791 5231 4.2 28 7 2 8 26% 14180 94171 19364 63%
c d  7.07 28 382 0 8 2030 38 15791 5189 4.2 28 7 2 8 26% 12854 94171 19364 63%
c t  7.08 28 382 0 8 2030 38 15791 5189 4.2 28 7 2 8 26% 12846 94171 19364 63%
c -  7.31 28 365 0 9 2150 36 17312 5911 4.2 28 7 2 8 25% 12877 94167 19364 63%
c -  7.68 28 348 0 10 2379 35 20316 7562 4.1 28 7 2 8 25% 12959 94167 19364 63%
c o  7.78 28 345 0 10 2413 34 20860 8017 4.1 28 7 2 8 25% 12976 94167 19364 63%
c -  8.18 28 342 0 11 2654 35 23479 8993 4.1 28 7 2 7 25% 13054 94163 19364 63%
c
c  seconds   switched     rate         size/glue tier1    binary          remaining
c         MB   reductions   conflicts        size  tier2      irredundant
c           level   restarts      redundant    glue   trail          variables
c
c s  8.47 28 344 0 11 2793 35 25017 10360 3.9 30 8 2 7 25% 13084 91031 19364 63%
c e  8.57 28 344 0 11 2793 35 25017 10360 3.9 30 8 2 7 25% 10650 94303 18028 59%
c s  8.58 28 344 0 11 2793 35 25017 10360 3.9 30 8 2 7 25% 10666 93835 18028 59%
c e  8.59 28 344 0 11 2793 35 25017 10360 3.9 30 8 2 7 25% 10659 93845 18025 59%
c ^  8.59 28 344 0 11 2793 35 25017 10360 3.9 30 8 2 7 25% 10659 93845 18025 59%
c -  8.83 28 325 0 12 2882 33 26796 9574 3.8 29 8 2 7 25% 10688 93845 18025 59%
c c  8.88 28 323 0 12 2882 33 26918 9689 3.8 29 8 2 7 25% 10751 93543 17984 59%
c d  8.88 28 323 0 12 2882 33 26918 9649 3.8 29 8 2 7 25% 10509 93543 17888 58%
c u  8.91 28 323 0 12 2882 33 26918 8441 3.8 29 8 2 7 25% 10526 93543 17888 58%
c v  8.95 28 323 0 12 2882 33 26918 7469 3.8 29 8 2 7 25% 10527 93543 17888 58%
c w  8.96 28 323 0 12 2882 33 26918 7464 3.8 29 8 2 7 25% 10527 93543 17888 58%
c x  9.00 28 323 0 12 2882 33 26918 7464 3.8 29 8 2 7 25% 10568 92412 17888 58%
c =  9.17 28 323 0 12 2882 33 26918 7464 3.8 29 8 2 7 25% 13980 92412 16182 53%
c d  9.18 28 323 0 12 2882 33 26918 7360 3.8 29 8 2 7 25% 10521 92412 16180 53%
c t  9.19 28 323 0 12 2882 33 26918 7360 3.8 29 8 2 7 25% 10444 92412 16180 53%
c f  9.23 28 323 0 12 2882 33 26918 7360 3.8 29 8 2 7 25% 10442 92311 16199 53%
c u  9.27 28 323 0 12 2882 33 26918 7002 3.8 29 8 2 7 25% 10448 92311 16199 53%
c v  9.29 28 323 0 12 2882 33 26918 6822 3.8 29 8 2 7 25% 10448 92311 16199 53%
c w  9.30 28 323 0 12 2882 33 26918 6820 3.8 29 8 2 7 25% 10448 92311 16199 53%
c x  9.36 28 323 0 12 2882 33 26918 6819 3.8 29 8 2 7 25% 10467 84734 16199 53%
c
c  seconds   switched     rate        size/glue tier1    binary          remaining
c         MB   reductions   conflicts       size  tier2      irredundant
c           level   restarts     redundant    glue   trail          variables
c
c =  9.52 28 323 0 12 2882 33 26918 6819 3.8 29 8 2 7 25% 11801 84730 15532 51%
c d  9.52 28 323 0 12 2882 33 26918 6729 3.8 29 8 2 7 25% 10420 84730 15532 51%
c t  9.53 28 323 0 12 2882 33 26918 6729 3.8 29 8 2 7 25% 10356 84730 15532 51%
c f  9.55 28 323 0 12 2882 33 26918 6729 3.8 29 8 2 7 25% 10363 84684 15543 51%
c -  9.82 28 315 0 13 3034 31 30260 8653 3.7 28 8 2 7 24% 10426 84683 15543 51%
c - 10.22 28 300 0 14 3276 30 33868 10488 3.7 28 7 2 7 24% 10489 84673 15543 51%
c - 10.56 28 289 0 15 3464 28 37609 12067 3.6 27 7 2 7 24% 10560 84673 15543 51%
c c 10.73 28 280 0 15 3516 27 41248 14993 3.5 25 7 2 7 23% 10744 84040 15428 50%
c d 10.74 28 280 0 15 3516 27 41248 14531 3.5 25 7 2 7 23% 10514 84040 15428 50%
c u 10.78 28 280 0 15 3516 27 41248 12380 3.5 25 7 2 7 23% 10543 84040 15428 50%
c v 10.80 28 280 0 15 3516 27 41248 11999 3.5 25 7 2 7 23% 10543 84040 15428 50%
c w 10.82 28 280 0 15 3516 27 41248 11992 3.5 25 7 2 7 23% 10543 84040 15428 50%
c x 10.86 28 280 0 15 3516 27 41248 11991 3.5 25 7 2 7 23% 10545 80039 15428 50%
c d 10.97 28 280 0 15 3516 27 41248 11974 3.5 25 7 2 7 23% 10533 80039 15422 50%
c t 10.98 28 280 0 15 3516 27 41248 11974 3.5 25 7 2 7 23% 10518 80039 15422 50%
c c 11.03 28 280 0 15 3516 27 41248 11965 3.5 25 7 2 7 23% 10527 80006 15417 50%
c d 11.04 28 280 0 15 3516 27 41248 11942 3.5 25 7 2 7 23% 10517 80006 15417 50%
c u 11.07 28 280 0 15 3516 27 41248 11438 3.5 25 7 2 7 23% 10524 80006 15417 50%
c v 11.10 28 280 0 15 3516 27 41248 10506 3.5 25 7 2 7 23% 10534 80006 15417 50%
c w 11.12 28 280 0 15 3516 27 41248 10494 3.5 25 7 2 7 23% 10534 80006 15417 50%
c
c  seconds   switched     rate         size/glue tier1    binary          remaining
c         MB   reductions   conflicts        size  tier2      irredundant
c           level   restarts      redundant    glue   trail          variables
c
c x 11.16 28 280 0 15 3516 27 41248 10494 3.5 25 7 2 7 23% 10534 77726 15417 50%
c d 11.16 28 280 0 15 3516 27 41248 10486 3.5 25 7 2 7 23% 10526 77726 15413 50%
c t 11.18 28 280 0 15 3516 27 41248 10486 3.5 25 7 2 7 23% 10524 77726 15413 50%
c o 11.19 28 280 0 15 3516 27 41248 10486 3.5 25 7 2 7 23% 10524 77726 15413 50%
c - 11.23 28 279 0 16 3551 27 41481 9515 3.5 25 7 2 7 23% 10524 77726 15413 50%
c - 11.64 28 270 0 17 3828 27 45481 11374 3.5 25 7 2 7 23% 10644 77725 15413 50%
c - 12.10 28 266 0 18 4170 27 49604 13406 3.5 25 7 2 7 23% 10738 77718 15413 50%
c s 12.44 28 265 0 18 4383 27 52118 15624 3.5 25 7 2 7 23% 10795 75670 15413 50%
c e 12.51 28 265 0 18 4383 27 52118 15624 3.5 25 7 2 7 23% 9826 76997 14944 49%
c 2 12.51 28 265 0 18 4383 27 52118 15624 3.5 25 7 2 7 23% 9821 76997 14944 49%
c s 12.51 28 265 0 18 4383 27 52118 15624 3.5 25 7 2 7 23% 9835 76529 14944 49%
c e 12.52 28 265 0 18 4383 27 52118 15624 3.5 25 7 2 7 23% 9820 76543 14936 49%
c ^ 12.52 28 265 0 18 4383 27 52118 15624 3.5 25 7 2 7 23% 9820 76543 14936 49%
c - 12.72 28 262 0 19 4485 27 53847 13916 3.5 25 7 2 6 23% 9869 76543 14936 49%
c - 13.07 28 247 0 20 4715 25 58206 15744 3.4 24 7 2 6 22% 9992 76537 14936 49%
c d 13.11 28 244 0 20 4748 25 58885 16282 3.4 24 7 2 6 22% 9923 76537 14899 49%
c u 13.16 28 244 0 20 4748 25 58885 13920 3.4 24 7 2 6 22% 9967 76537 14899 49%
c v 13.20 28 244 0 20 4748 25 58885 13156 3.4 24 7 2 6 22% 9965 76537 14899 49%
c w 13.22 28 244 0 20 4748 25 58885 13130 3.4 24 7 2 6 22% 9965 76537 14899 49%
c x 13.26 28 244 0 20 4748 25 58885 13128 3.4 24 7 2 6 22% 9972 76359 14899 49%
c
c  seconds   switched     rate         size/glue tier1    binary         remaining
c         MB   reductions   conflicts        size  tier2     irredundant
c           level   restarts      redundant    glue   trail         variables
c
c = 13.42 28 244 0 20 4748 25 58885 13128 3.4 24 7 2 6 22% 9982 76359 14894 49%
c d 13.42 28 244 0 20 4748 25 58885 13099 3.4 24 7 2 6 22% 9949 76359 14883 49%
c t 13.43 28 244 0 20 4748 25 58885 13099 3.4 24 7 2 6 22% 9914 76359 14883 49%
c f 13.45 28 244 0 20 4748 25 58885 13099 3.4 24 7 2 6 22% 9921 76274 14897 49%
c c 13.49 28 244 0 20 4748 25 58885 12942 3.4 24 7 2 6 22% 10052 75703 14819 48%
c d 13.49 28 244 0 20 4748 25 58885 12942 3.4 24 7 2 6 22% 9898 75703 14819 48%
c u 13.53 28 244 0 20 4748 25 58885 12369 3.4 24 7 2 6 22% 9899 75703 14819 48%
c v 13.57 28 244 0 20 4748 25 58885 11621 3.4 24 7 2 6 22% 9900 75703 14819 48%
c w 13.58 28 244 0 20 4748 25 58885 11608 3.4 24 7 2 6 22% 9900 75703 14819 48%
c x 13.64 28 244 0 20 4748 25 58885 11607 3.4 24 7 2 6 22% 9916 74770 14819 48%
c = 13.83 28 244 0 20 4748 25 58885 11607 3.4 24 7 2 6 22% 10532 74770 14511 47%
c d 13.83 28 244 0 20 4748 25 58885 11529 3.4 24 7 2 6 22% 9886 74770 14508 47%
c t 13.84 28 244 0 20 4748 25 58885 11529 3.4 24 7 2 6 22% 9860 74770 14508 47%
c f 13.86 28 244 0 20 4748 25 58885 11529 3.4 24 7 2 6 22% 9862 74754 14510 47%
c - 14.21 28 246 0 21 4987 25 62679 13358 3.4 24 7 2 6 22% 9934 74752 14510 47%
c - 14.56 28 249 0 22 5243 25 67261 15615 3.4 24 7 2 6 22% 10025 74752 14510 47%
c o 15.01 28 238 0 22 5542 24 71385 19272 3.4 24 7 2 6 21% 10078 74751 14510 47%
c - 15.29 28 238 0 23 5684 24 71951 17596 3.4 24 7 2 6 22% 10082 74751 14510 47%
c - 16.16 28 231 0 24 6098 24 76746 19373 3.4 24 7 2 6 22% 10188 74751 14510 47%
c c 17.05 28 227 0 24 6492 24 79955 22250 3.4 25 7 2 6 22% 10355 73699 14302 47%
c
c  seconds   switched     rate         size/glue tier1    binary         remaining
c         MB   reductions   conflicts        size  tier2     irredundant
c           level   restarts      redundant    glue   trail         variables
c
c d 17.06 28 227 0 24 6492 24 79955 21603 3.4 25 7 2 6 22% 9939 73699 14302 47%
c u 17.16 28 227 0 24 6492 24 79955 17814 3.4 25 7 2 6 22% 9969 73699 14302 47%
c v 17.22 28 227 0 24 6492 24 79955 16976 3.4 25 7 2 6 22% 9969 73699 14302 47%
c w 17.28 28 227 0 24 6492 24 79955 16975 3.4 25 7 2 6 22% 9969 73699 14302 47%
c x 17.37 28 227 0 24 6492 24 79955 16968 3.4 25 7 2 6 22% 9974 72970 14302 47%
c = 17.66 28 227 0 24 6492 24 79955 16968 3.4 25 7 2 6 22% 10508 72970 14035 46%
c d 17.66 28 227 0 24 6492 24 79955 16413 3.4 25 7 2 6 22% 9894 72970 14031 46%
c t 17.68 28 227 0 24 6492 24 79955 16413 3.4 25 7 2 6 22% 9860 72970 14031 46%
c f 17.70 28 227 0 24 6492 24 79955 16413 3.4 25 7 2 6 22% 9869 72908 14039 46%
c c 17.75 28 227 0 24 6492 24 79955 16413 3.4 25 7 2 6 22% 9872 72900 14038 46%
c d 17.76 28 227 0 24 6492 24 79955 16413 3.4 25 7 2 6 22% 9870 72900 14038 46%
c u 17.84 28 227 0 24 6492 24 79955 15462 3.4 25 7 2 6 22% 9884 72900 14038 46%
c v 17.91 28 227 0 24 6492 24 79955 14586 3.4 25 7 2 6 22% 9884 72900 14038 46%
c w 18.01 28 227 0 24 6492 24 79955 14584 3.4 25 7 2 6 22% 9884 72900 14038 46%
c x 18.09 28 227 0 24 6492 24 79955 14578 3.4 25 7 2 6 22% 9902 72168 14038 46%
c = 18.47 28 227 0 24 6492 24 79955 14578 3.4 25 7 2 6 22% 10850 72133 13561 44%
c d 18.48 28 227 0 24 6492 24 79955 14274 3.4 25 7 2 6 22% 9829 72133 13560 44%
c t 18.50 28 227 0 24 6492 24 79955 14274 3.4 25 7 2 6 22% 9728 72133 13560 44%
c f 18.52 28 227 0 24 6492 24 79955 14274 3.4 25 7 2 6 22% 9752 72009 13576 44%
c - 18.81 28 227 0 25 6602 24 81644 12578 3.4 25 7 1 6 22% 9762 72006 13576 44%
c
c  seconds   switched     rate         size/glue tier1    binary         remaining
c         MB   reductions   conflicts        size  tier2     irredundant
c           level   restarts      redundant    glue   trail         variables
c
c - 19.81 28 223 0 26 7055 24 86644 14398 3.4 25 7 1 6 23% 9799 72000 13576 44%
c - 20.75 28 217 0 27 7490 24 91743 16105 3.4 24 7 1 5 23% 9855 71998 13576 44%
c s 21.62 28 213 0 27 7902 24 95799 19853 3.4 25 7 1 5 23% 9887 67284 13576 44%
c e 21.74 28 213 0 27 7902 24 95799 19853 3.4 25 7 1 5 23% 6343 75557 11849 39%
c 2 21.74 28 213 0 27 7902 24 95799 19853 3.4 25 7 1 5 23% 6338 75557 11849 39%
c s 21.76 28 213 0 27 7902 24 95799 19853 3.4 25 7 1 5 23% 6356 74948 11849 39%
c e 21.78 28 213 0 27 7902 24 95799 19853 3.4 25 7 1 5 23% 6319 75098 11797 38%
c ^ 21.78 28 213 0 27 7902 24 95799 19853 3.4 25 7 1 5 23% 6319 75098 11797 38%
c - 22.04 28 212 0 28 8027 24 96939 13160 3.4 25 7 1 5 23% 6326 75097 11797 38%
c - 23.10 28 208 0 29 8614 24 102231 15321 3.4 25 7 1 5 23% 6383 75089 11797 38%
c d 23.47 28 206 0 29 8914 24 104590 17432 3.4 25 7 1 5 23% 6350 75087 11775 38%
c u 23.52 28 206 0 29 8914 24 104590 15503 3.4 25 7 1 5 23% 6383 75087 11775 38%
c v 23.57 28 206 0 29 8914 24 104590 13245 3.4 25 7 1 5 23% 6393 75087 11775 38%
c w 23.68 28 206 0 29 8914 24 104590 13144 3.4 25 7 1 5 23% 6393 75087 11775 38%
c x 23.74 29 206 0 29 8914 24 104590 13144 3.4 25 7 1 5 23% 6394 75039 11775 38%
c = 23.97 29 206 0 29 8914 24 104590 13144 3.4 25 7 1 5 23% 7191 74527 11314 37%
c } 23.97 29 206 0 29 8914 24 104590 13144 3.4 25 7 1 5 23% 7191 74527 11708 38%
c 0 23.97 29 206 0 29 8914 24 104590 13144 3.4 25 7 1 5 23% 7191 74527 11708 38%
c
c ---- [ result ] ------------------------------------------------------------
c
s UNSATISFIABLE
c
c ---- [ profiling ] ---------------------------------------------------------
c
c          16.77   69.97 %  search
c          16.77   69.97 %  focused
c           6.67   27.83 %  simplify
c           6.31   26.34 %  probe
c           2.46   10.27 %  sweep
c           2.30    9.58 %  vivify
c           0.60    2.51 %  eliminate
c           0.54    2.27 %  congruence
c           0.49    2.04 %  factor
c           0.45    1.86 %  preprocess
c           0.37    1.56 %  substitute
c           0.19    0.80 %  fastel
c           0.15    0.64 %  reduce
c           0.11    0.45 %  subsume
c           0.10    0.41 %  transitive
c           0.05    0.20 %  backbone
c           0.05    0.20 %  lucky
c           0.03    0.14 %  parse
c =============================================
c          23.97  100.00 %  total
c
c ---- [ statistics ] --------------------------------------------------------
c
c chronological:                         5096                5 %  conflicts
c conflicts:                           104590             4363.41 per second
c congruent:                             3954               13 %  variables
c decisions:                          2422925               23.17 per conflict
c eliminated:                           13309               43 %  variables
c factored:                              4650               15 %  variables
c fast_eliminated:                       9033               68 %  eliminated
c fast_strengthened:                       18                1 %  per strengthened
c fast_subsumed:                           67                0 %  per subsumed
c propagations:                      93821594          3914158    per second
c reductions:                              29             3607    interval
c reordered:                                4            26148    interval
c restarts:                              8914               12    interval
c strengthened:                          1256                0 %  checks
c substituted:                          10213               33 %  variables
c subsumed:                             18308                1 %  checks
c switched:                                 0                0    interval
c vivified:                             55557               13 %  checks
c
c ---- [ glue usage ] --------------------------------------------------------
c
c focused glue 1 used 137678 clauses 53.94% accumulated 53.94% tier1
c focused glue 2 used  59366 clauses 23.26% accumulated 77.19%
c focused glue 3 used  16844 clauses  6.60% accumulated 83.79%
c focused glue 4 used  10184 clauses  3.99% accumulated 87.78%
c focused glue 5 used   6850 clauses  2.68% accumulated 90.47% tier2
c
c ---- [ resources ] ---------------------------------------------------------
c
c maximum-resident-set-size:         30654464 bytes         29 MB
c process-time:                            24s              23.97 seconds
c
c ---- [ shutting down ] -----------------------------------------------------
c
c exit 20
